0 155 
1 157 
2 159 
3 159 
4 158 
5 159 
6 157 
7 157 
8 156 
9 156 
10 155 
11 156 
12 157 
13 158 
14 158 
15 157 
16 156 
17 156 
18 153 
19 150 
20 145 
21 145 
22 144 
23 141 
24 140 
25 138 
26 135 
27 136 
28 135 
29 132 
30 130 
31 127 
32 126 
33 122 
34 120 
35 118 
36 117 
37 115 
38 111 
39 108 
40 105 
41 101 
42 99 
43 98 
44 98 
45 99 
46 99 
47 97 
48 94 
49 90 
50 90 
51 90 
52 86 
53 85 
54 81 
55 77 
56 73 
57 75 
58 70 
59 71 
60 69 
61 72 
62 72 
63 72 
64 69 
65 66 
66 64 
67 63 
68 63 
69 61 
70 61 
71 61 
72 59 
73 58 
74 58 
75 59 
76 59 
77 60 
78 58 
79 58 
80 59 
81 57 
82 56 
83 53 
84 52 
85 48 
86 46 
87 45 
88 47 
89 49 
90 46 
91 45 
92 44 
93 41 
94 40 
95 39 
96 37 
97 35 
98 34 
99 33 
100 35 
101 31 
102 28 
103 25 
104 21 
105 17 
106 19 
107 18 
108 17 
109 18 
110 16 
111 13 
112 9 
113 9 
114 4 
115 3 
116 3 
117 3 
118 3 
119 3 
120 5 
121 2 
122 2 
123 2 
124 0 
125 1 
126 0 
127 0 
128 0 
129 0 

